
  32    4
  10   10   10   10

   0   0   0   0   0   3 2 30 31 
   7   0   1   1   1   2 29 3 
   3   1   0   3   2   1 4 
   8   3   2   4   0   1 5 
   1   2   0   5   2   1 6 
   1   0   3   6   4   1 7 
   5   2   5   0   4   1 8 
   1   3   5   2   0   1 9 
   8   6   4   4   0   1 10 
   5   0   4   1   3   1 11 
   7   9   3   4   0   1 12 
   8   5   0   4   6   1 13 
  10   4   0   6   4   1 14 
   2   0   5   8   6   1 15 
   7   6   4   4   0   1 16 
   1   7   4   0   8   1 17 
   9   2   4   3   0   1 18 
   9   5   4   0   3   1 19 
   7   6   3   0   2   1 20 
   5   0   2   4   6   1 21 
   5   0   7   5   3   1 22 
   2   4   0   2   7   1 23 
   3   2   3   0   3   1 24 
   5   3   4   5   0   1 25 
   2   6   8   0   7   1 26 
   1   3   0   8   1   1 27 
  10   5   8   0   4   1 28 
   7   2   6   0   3   1 32
  10   2   4   3   0   1 32
   5   4   1   2   0   1 32
   8   0   2   4   5   1 32
   0   0   0   0   0   0 
